============================[ Problem Statistics ]=============================|                                                                             ||  Number of variables:          4242                                         ||  Number of clauses:            9672                                         ||  Parse time:                   0.08 s                                       ||                                                                             |============================[ Search Statistics ]==============================| Conflicts |          ORIGINAL         |          LEARNT          | Progress ||           |    Vars  Clauses Literals |    Limit  Clauses Lit/Cl |          |==============================================================================================================================================================restarts              : 1conflicts             : 48             (436 /sec)decisions             : 134            (0.00 % random) (1218 /sec)propagations          : 8120           (73818 /sec)conflict literals     : 2049           (95.85 % deleted)CPU time              : 0.11 sSATISFIABLE